c description: Graph pigeonhole principle formula on fast_gnp_random_graph(20,5,0.9)
c generator: CNFgen (0.9.0)
c copyright: (C) 2012-2020 Massimo Lauria <massimo.lauria@uniroma1.it>
c url: https://massimolauria.net/cnfgen
c
p cnf 98 933
1 2 3 4 5 0
6 7 8 9 10 0
11 12 13 14 15 0
16 17 18 19 20 0
21 22 23 24 25 0
26 27 28 29 30 0
31 32 33 34 35 0
36 37 38 39 0
40 41 42 43 44 0
45 46 47 48 0
49 50 51 52 53 0
54 55 56 57 58 0
59 60 61 62 63 0
64 65 66 67 68 0
69 70 71 72 73 0
74 75 76 77 78 0
79 80 81 82 83 0
84 85 86 87 88 0
89 90 91 92 93 0
94 95 96 97 98 0
-1 -6 0
-1 -11 0
-1 -16 0
-1 -21 0
-1 -26 0
-1 -31 0
-1 -36 0
-1 -40 0
-1 -45 0
-1 -49 0
-1 -54 0
-1 -59 0
-1 -64 0
-1 -69 0
-1 -74 0
-1 -79 0
-1 -84 0
-1 -89 0
-1 -94 0
-6 -11 0
-6 -16 0
-6 -21 0
-6 -26 0
-6 -31 0
-6 -36 0
-6 -40 0
-6 -45 0
-6 -49 0
-6 -54 0
-6 -59 0
-6 -64 0
-6 -69 0
-6 -74 0
-6 -79 0
-6 -84 0
-6 -89 0
-6 -94 0
-11 -16 0
-11 -21 0
-11 -26 0
-11 -31 0
-11 -36 0
-11 -40 0
-11 -45 0
-11 -49 0
-11 -54 0
-11 -59 0
-11 -64 0
-11 -69 0
-11 -74 0
-11 -79 0
-11 -84 0
-11 -89 0
-11 -94 0
-16 -21 0
-16 -26 0
-16 -31 0
-16 -36 0
-16 -40 0
-16 -45 0
-16 -49 0
-16 -54 0
-16 -59 0
-16 -64 0
-16 -69 0
-16 -74 0
-16 -79 0
-16 -84 0
-16 -89 0
-16 -94 0
-21 -26 0
-21 -31 0
-21 -36 0
-21 -40 0
-21 -45 0
-21 -49 0
-21 -54 0
-21 -59 0
-21 -64 0
-21 -69 0
-21 -74 0
-21 -79 0
-21 -84 0
-21 -89 0
-21 -94 0
-26 -31 0
-26 -36 0
-26 -40 0
-26 -45 0
-26 -49 0
-26 -54 0
-26 -59 0
-26 -64 0
-26 -69 0
-26 -74 0
-26 -79 0
-26 -84 0
-26 -89 0
-26 -94 0
-31 -36 0
-31 -40 0
-31 -45 0
-31 -49 0
-31 -54 0
-31 -59 0
-31 -64 0
-31 -69 0
-31 -74 0
-31 -79 0
-31 -84 0
-31 -89 0
-31 -94 0
-36 -40 0
-36 -45 0
-36 -49 0
-36 -54 0
-36 -59 0
-36 -64 0
-36 -69 0
-36 -74 0
-36 -79 0
-36 -84 0
-36 -89 0
-36 -94 0
-40 -45 0
-40 -49 0
-40 -54 0
-40 -59 0
-40 -64 0
-40 -69 0
-40 -74 0
-40 -79 0
-40 -84 0
-40 -89 0
-40 -94 0
-45 -49 0
-45 -54 0
-45 -59 0
-45 -64 0
-45 -69 0
-45 -74 0
-45 -79 0
-45 -84 0
-45 -89 0
-45 -94 0
-49 -54 0
-49 -59 0
-49 -64 0
-49 -69 0
-49 -74 0
-49 -79 0
-49 -84 0
-49 -89 0
-49 -94 0
-54 -59 0
-54 -64 0
-54 -69 0
-54 -74 0
-54 -79 0
-54 -84 0
-54 -89 0
-54 -94 0
-59 -64 0
-59 -69 0
-59 -74 0
-59 -79 0
-59 -84 0
-59 -89 0
-59 -94 0
-64 -69 0
-64 -74 0
-64 -79 0
-64 -84 0
-64 -89 0
-64 -94 0
-69 -74 0
-69 -79 0
-69 -84 0
-69 -89 0
-69 -94 0
-74 -79 0
-74 -84 0
-74 -89 0
-74 -94 0
-79 -84 0
-79 -89 0
-79 -94 0
-84 -89 0
-84 -94 0
-89 -94 0
-2 -7 0
-2 -12 0
-2 -17 0
-2 -22 0
-2 -27 0
-2 -32 0
-2 -41 0
-2 -50 0
-2 -55 0
-2 -60 0
-2 -65 0
-2 -70 0
-2 -75 0
-2 -80 0
-2 -85 0
-2 -90 0
-2 -95 0
-7 -12 0
-7 -17 0
-7 -22 0
-7 -27 0
-7 -32 0
-7 -41 0
-7 -50 0
-7 -55 0
-7 -60 0
-7 -65 0
-7 -70 0
-7 -75 0
-7 -80 0
-7 -85 0
-7 -90 0
-7 -95 0
-12 -17 0
-12 -22 0
-12 -27 0
-12 -32 0
-12 -41 0
-12 -50 0
-12 -55 0
-12 -60 0
-12 -65 0
-12 -70 0
-12 -75 0
-12 -80 0
-12 -85 0
-12 -90 0
-12 -95 0
-17 -22 0
-17 -27 0
-17 -32 0
-17 -41 0
-17 -50 0
-17 -55 0
-17 -60 0
-17 -65 0
-17 -70 0
-17 -75 0
-17 -80 0
-17 -85 0
-17 -90 0
-17 -95 0
-22 -27 0
-22 -32 0
-22 -41 0
-22 -50 0
-22 -55 0
-22 -60 0
-22 -65 0
-22 -70 0
-22 -75 0
-22 -80 0
-22 -85 0
-22 -90 0
-22 -95 0
-27 -32 0
-27 -41 0
-27 -50 0
-27 -55 0
-27 -60 0
-27 -65 0
-27 -70 0
-27 -75 0
-27 -80 0
-27 -85 0
-27 -90 0
-27 -95 0
-32 -41 0
-32 -50 0
-32 -55 0
-32 -60 0
-32 -65 0
-32 -70 0
-32 -75 0
-32 -80 0
-32 -85 0
-32 -90 0
-32 -95 0
-41 -50 0
-41 -55 0
-41 -60 0
-41 -65 0
-41 -70 0
-41 -75 0
-41 -80 0
-41 -85 0
-41 -90 0
-41 -95 0
-50 -55 0
-50 -60 0
-50 -65 0
-50 -70 0
-50 -75 0
-50 -80 0
-50 -85 0
-50 -90 0
-50 -95 0
-55 -60 0
-55 -65 0
-55 -70 0
-55 -75 0
-55 -80 0
-55 -85 0
-55 -90 0
-55 -95 0
-60 -65 0
-60 -70 0
-60 -75 0
-60 -80 0
-60 -85 0
-60 -90 0
-60 -95 0
-65 -70 0
-65 -75 0
-65 -80 0
-65 -85 0
-65 -90 0
-65 -95 0
-70 -75 0
-70 -80 0
-70 -85 0
-70 -90 0
-70 -95 0
-75 -80 0
-75 -85 0
-75 -90 0
-75 -95 0
-80 -85 0
-80 -90 0
-80 -95 0
-85 -90 0
-85 -95 0
-90 -95 0
-3 -8 0
-3 -13 0
-3 -18 0
-3 -23 0
-3 -28 0
-3 -33 0
-3 -37 0
-3 -42 0
-3 -46 0
-3 -51 0
-3 -56 0
-3 -61 0
-3 -66 0
-3 -71 0
-3 -76 0
-3 -81 0
-3 -86 0
-3 -91 0
-3 -96 0
-8 -13 0
-8 -18 0
-8 -23 0
-8 -28 0
-8 -33 0
-8 -37 0
-8 -42 0
-8 -46 0
-8 -51 0
-8 -56 0
-8 -61 0
-8 -66 0
-8 -71 0
-8 -76 0
-8 -81 0
-8 -86 0
-8 -91 0
-8 -96 0
-13 -18 0
-13 -23 0
-13 -28 0
-13 -33 0
-13 -37 0
-13 -42 0
-13 -46 0
-13 -51 0
-13 -56 0
-13 -61 0
-13 -66 0
-13 -71 0
-13 -76 0
-13 -81 0
-13 -86 0
-13 -91 0
-13 -96 0
-18 -23 0
-18 -28 0
-18 -33 0
-18 -37 0
-18 -42 0
-18 -46 0
-18 -51 0
-18 -56 0
-18 -61 0
-18 -66 0
-18 -71 0
-18 -76 0
-18 -81 0
-18 -86 0
-18 -91 0
-18 -96 0
-23 -28 0
-23 -33 0
-23 -37 0
-23 -42 0
-23 -46 0
-23 -51 0
-23 -56 0
-23 -61 0
-23 -66 0
-23 -71 0
-23 -76 0
-23 -81 0
-23 -86 0
-23 -91 0
-23 -96 0
-28 -33 0
-28 -37 0
-28 -42 0
-28 -46 0
-28 -51 0
-28 -56 0
-28 -61 0
-28 -66 0
-28 -71 0
-28 -76 0
-28 -81 0
-28 -86 0
-28 -91 0
-28 -96 0
-33 -37 0
-33 -42 0
-33 -46 0
-33 -51 0
-33 -56 0
-33 -61 0
-33 -66 0
-33 -71 0
-33 -76 0
-33 -81 0
-33 -86 0
-33 -91 0
-33 -96 0
-37 -42 0
-37 -46 0
-37 -51 0
-37 -56 0
-37 -61 0
-37 -66 0
-37 -71 0
-37 -76 0
-37 -81 0
-37 -86 0
-37 -91 0
-37 -96 0
-42 -46 0
-42 -51 0
-42 -56 0
-42 -61 0
-42 -66 0
-42 -71 0
-42 -76 0
-42 -81 0
-42 -86 0
-42 -91 0
-42 -96 0
-46 -51 0
-46 -56 0
-46 -61 0
-46 -66 0
-46 -71 0
-46 -76 0
-46 -81 0
-46 -86 0
-46 -91 0
-46 -96 0
-51 -56 0
-51 -61 0
-51 -66 0
-51 -71 0
-51 -76 0
-51 -81 0
-51 -86 0
-51 -91 0
-51 -96 0
-56 -61 0
-56 -66 0
-56 -71 0
-56 -76 0
-56 -81 0
-56 -86 0
-56 -91 0
-56 -96 0
-61 -66 0
-61 -71 0
-61 -76 0
-61 -81 0
-61 -86 0
-61 -91 0
-61 -96 0
-66 -71 0
-66 -76 0
-66 -81 0
-66 -86 0
-66 -91 0
-66 -96 0
-71 -76 0
-71 -81 0
-71 -86 0
-71 -91 0
-71 -96 0
-76 -81 0
-76 -86 0
-76 -91 0
-76 -96 0
-81 -86 0
-81 -91 0
-81 -96 0
-86 -91 0
-86 -96 0
-91 -96 0
-4 -9 0
-4 -14 0
-4 -19 0
-4 -24 0
-4 -29 0
-4 -34 0
-4 -38 0
-4 -43 0
-4 -47 0
-4 -52 0
-4 -57 0
-4 -62 0
-4 -67 0
-4 -72 0
-4 -77 0
-4 -82 0
-4 -87 0
-4 -92 0
-4 -97 0
-9 -14 0
-9 -19 0
-9 -24 0
-9 -29 0
-9 -34 0
-9 -38 0
-9 -43 0
-9 -47 0
-9 -52 0
-9 -57 0
-9 -62 0
-9 -67 0
-9 -72 0
-9 -77 0
-9 -82 0
-9 -87 0
-9 -92 0
-9 -97 0
-14 -19 0
-14 -24 0
-14 -29 0
-14 -34 0
-14 -38 0
-14 -43 0
-14 -47 0
-14 -52 0
-14 -57 0
-14 -62 0
-14 -67 0
-14 -72 0
-14 -77 0
-14 -82 0
-14 -87 0
-14 -92 0
-14 -97 0
-19 -24 0
-19 -29 0
-19 -34 0
-19 -38 0
-19 -43 0
-19 -47 0
-19 -52 0
-19 -57 0
-19 -62 0
-19 -67 0
-19 -72 0
-19 -77 0
-19 -82 0
-19 -87 0
-19 -92 0
-19 -97 0
-24 -29 0
-24 -34 0
-24 -38 0
-24 -43 0
-24 -47 0
-24 -52 0
-24 -57 0
-24 -62 0
-24 -67 0
-24 -72 0
-24 -77 0
-24 -82 0
-24 -87 0
-24 -92 0
-24 -97 0
-29 -34 0
-29 -38 0
-29 -43 0
-29 -47 0
-29 -52 0
-29 -57 0
-29 -62 0
-29 -67 0
-29 -72 0
-29 -77 0
-29 -82 0
-29 -87 0
-29 -92 0
-29 -97 0
-34 -38 0
-34 -43 0
-34 -47 0
-34 -52 0
-34 -57 0
-34 -62 0
-34 -67 0
-34 -72 0
-34 -77 0
-34 -82 0
-34 -87 0
-34 -92 0
-34 -97 0
-38 -43 0
-38 -47 0
-38 -52 0
-38 -57 0
-38 -62 0
-38 -67 0
-38 -72 0
-38 -77 0
-38 -82 0
-38 -87 0
-38 -92 0
-38 -97 0
-43 -47 0
-43 -52 0
-43 -57 0
-43 -62 0
-43 -67 0
-43 -72 0
-43 -77 0
-43 -82 0
-43 -87 0
-43 -92 0
-43 -97 0
-47 -52 0
-47 -57 0
-47 -62 0
-47 -67 0
-47 -72 0
-47 -77 0
-47 -82 0
-47 -87 0
-47 -92 0
-47 -97 0
-52 -57 0
-52 -62 0
-52 -67 0
-52 -72 0
-52 -77 0
-52 -82 0
-52 -87 0
-52 -92 0
-52 -97 0
-57 -62 0
-57 -67 0
-57 -72 0
-57 -77 0
-57 -82 0
-57 -87 0
-57 -92 0
-57 -97 0
-62 -67 0
-62 -72 0
-62 -77 0
-62 -82 0
-62 -87 0
-62 -92 0
-62 -97 0
-67 -72 0
-67 -77 0
-67 -82 0
-67 -87 0
-67 -92 0
-67 -97 0
-72 -77 0
-72 -82 0
-72 -87 0
-72 -92 0
-72 -97 0
-77 -82 0
-77 -87 0
-77 -92 0
-77 -97 0
-82 -87 0
-82 -92 0
-82 -97 0
-87 -92 0
-87 -97 0
-92 -97 0
-5 -10 0
-5 -15 0
-5 -20 0
-5 -25 0
-5 -30 0
-5 -35 0
-5 -39 0
-5 -44 0
-5 -48 0
-5 -53 0
-5 -58 0
-5 -63 0
-5 -68 0
-5 -73 0
-5 -78 0
-5 -83 0
-5 -88 0
-5 -93 0
-5 -98 0
-10 -15 0
-10 -20 0
-10 -25 0
-10 -30 0
-10 -35 0
-10 -39 0
-10 -44 0
-10 -48 0
-10 -53 0
-10 -58 0
-10 -63 0
-10 -68 0
-10 -73 0
-10 -78 0
-10 -83 0
-10 -88 0
-10 -93 0
-10 -98 0
-15 -20 0
-15 -25 0
-15 -30 0
-15 -35 0
-15 -39 0
-15 -44 0
-15 -48 0
-15 -53 0
-15 -58 0
-15 -63 0
-15 -68 0
-15 -73 0
-15 -78 0
-15 -83 0
-15 -88 0
-15 -93 0
-15 -98 0
-20 -25 0
-20 -30 0
-20 -35 0
-20 -39 0
-20 -44 0
-20 -48 0
-20 -53 0
-20 -58 0
-20 -63 0
-20 -68 0
-20 -73 0
-20 -78 0
-20 -83 0
-20 -88 0
-20 -93 0
-20 -98 0
-25 -30 0
-25 -35 0
-25 -39 0
-25 -44 0
-25 -48 0
-25 -53 0
-25 -58 0
-25 -63 0
-25 -68 0
-25 -73 0
-25 -78 0
-25 -83 0
-25 -88 0
-25 -93 0
-25 -98 0
-30 -35 0
-30 -39 0
-30 -44 0
-30 -48 0
-30 -53 0
-30 -58 0
-30 -63 0
-30 -68 0
-30 -73 0
-30 -78 0
-30 -83 0
-30 -88 0
-30 -93 0
-30 -98 0
-35 -39 0
-35 -44 0
-35 -48 0
-35 -53 0
-35 -58 0
-35 -63 0
-35 -68 0
-35 -73 0
-35 -78 0
-35 -83 0
-35 -88 0
-35 -93 0
-35 -98 0
-39 -44 0
-39 -48 0
-39 -53 0
-39 -58 0
-39 -63 0
-39 -68 0
-39 -73 0
-39 -78 0
-39 -83 0
-39 -88 0
-39 -93 0
-39 -98 0
-44 -48 0
-44 -53 0
-44 -58 0
-44 -63 0
-44 -68 0
-44 -73 0
-44 -78 0
-44 -83 0
-44 -88 0
-44 -93 0
-44 -98 0
-48 -53 0
-48 -58 0
-48 -63 0
-48 -68 0
-48 -73 0
-48 -78 0
-48 -83 0
-48 -88 0
-48 -93 0
-48 -98 0
-53 -58 0
-53 -63 0
-53 -68 0
-53 -73 0
-53 -78 0
-53 -83 0
-53 -88 0
-53 -93 0
-53 -98 0
-58 -63 0
-58 -68 0
-58 -73 0
-58 -78 0
-58 -83 0
-58 -88 0
-58 -93 0
-58 -98 0
-63 -68 0
-63 -73 0
-63 -78 0
-63 -83 0
-63 -88 0
-63 -93 0
-63 -98 0
-68 -73 0
-68 -78 0
-68 -83 0
-68 -88 0
-68 -93 0
-68 -98 0
-73 -78 0
-73 -83 0
-73 -88 0
-73 -93 0
-73 -98 0
-78 -83 0
-78 -88 0
-78 -93 0
-78 -98 0
-83 -88 0
-83 -93 0
-83 -98 0
-88 -93 0
-88 -98 0
-93 -98 0